0 7 5 1 10 2 8 9 12 4 15 3 6 17 19 18 16 14 20 13 11
0 7 5 1 10 2 8 9 12 15 4 3 6 20 19 18 16 14 17 13 11
0 7 5 1 10 2 8 6 12 15 4 3 9 20 19 18 16 14 17 13 11
0 7 5 1 10 2 8 11 12 15 4 3 9 20 19 18 16 14 17 13 6
0 7 5 1 2 10 8 11 12 15 4 3 9 20 19 18 16 14 17 13 6
0 8 5 1 2 10 7 11 12 15 4 3 9 20 19 18 16 14 17 13 6
0 8 5 1 2 10 18 11 12 15 4 3 9 20 19 7 16 14 17 13 6
0 8 5 1 2 10 18 11 12 15 4 3 9 20 14 7 16 19 17 13 6
0 8 5 1 2 10 18 11 12 15 4 3 9 13 14 7 16 19 17 20 6
0 8 5 1 2 10 18 11 12 15 4 3 9 13 20 14 7 16 19 17 6
0 8 5 1 2 10 18 11 12 15 4 3 9 6 20 14 7 16 19 17 13
0 8 5 1 2 10 18 13 12 15 4 3 9 11 6 20 14 7 16 19 17
0 14 5 1 2 10 18 20 12 15 4 3 9 11 6 13 8 7 16 19 17
0 5 1 2 10 18 8 13 12 15 4 3 9 11 6 20 14 7 16 19 17
0 5 1 2 10 18 8 6 12 15 4 3 9 11 13 20 14 7 16 19 17
0 5 1 2 10 18 8 6 11 15 4 3 9 12 13 20 17 7 16 19 14
0 5 1 2 10 18 8 6 12 15 4 3 9 11 13 20 17 7 16 14 19
0 5 1 2 10 18 8 6 12 15 4 3 9 11 13 20 17 19 16 14 7
0 5 1 2 10 18 8 6 12 15 4 3 9 11 13 20 17 19 7 16 14
0 5 1 2 10 18 8 6 12 15 4 3 9 11 13 20 17 19 14 16 7
